
Gurobi 9.1.2 (linux64) logging started Wed Oct 13 02:59:15 2021

Changed value of parameter LogFile to /home/zongzan/dist_dnn_training/MixedMemoryOpt/data/budget_sweep/p32xlarge_VGG16_256_None/ilp_log/ilp_mixed_12893139648.log
   Prev:   Default: 
Changed value of parameter Threads to 32
   Prev: 0  Min: 0  Max: 1024  Default: 0
Changed value of parameter TimeLimit to 3600.0
   Prev: inf  Min: 0.0  Max: inf  Default: inf
Changed value of parameter OptimalityTol to 0.0001
   Prev: 1e-06  Min: 1e-09  Max: 0.01  Default: 1e-06
Parameter IntFeasTol unchanged
   Value: 1e-05  Min: 1e-09  Max: 0.1  Default: 1e-05
Changed value of parameter Presolve to 2
   Prev: -1  Min: -1  Max: 2  Default: -1
Changed value of parameter StartNodeLimit to 10000000
   Prev: -1  Min: -3  Max: 2000000000  Default: -1
Parameter TimeLimit unchanged
   Value: 3600.0  Min: 0.0  Max: inf  Default: inf


Restarting solve


Gurobi Optimizer version 9.1.2 build v9.1.2rc0 (linux64)
Thread count: 28 physical cores, 56 logical processors, using up to 32 threads
Optimize a model with 59836 rows, 14040 columns and 575687 nonzeros
Model fingerprint: 0x948d4e65
Variable types: 2025 continuous, 12015 integer (12015 binary)
Coefficient statistics:
  Matrix range     [1e+00, 5e+07]
  Objective range  [4e+00, 2e+02]
  Bounds range     [1e+00, 2e+08]
  RHS range        [1e+00, 2e+08]
Presolve removed 51834 rows and 8489 columns
Presolve time: 2.63s
Presolved: 8002 rows, 5551 columns, 45071 nonzeros
Variable types: 0 continuous, 5551 integer (4545 binary)
Presolve removed 54 rows and 54 columns
Presolved: 7948 rows, 5497 columns, 44961 nonzeros


Root relaxation: objective 3.116912e+03, 3335 iterations, 0.32 seconds

    Nodes    |    Current Node    |     Objective Bounds      |     Work
 Expl Unexpl |  Obj  Depth IntInf | Incumbent    BestBd   Gap | It/Node Time

     0     0 3116.91191    0  414          - 3116.91191      -     -    3s
     0     0 3122.29137    0  404          - 3122.29137      -     -    3s
     0     0 3124.58580    0  637          - 3124.58580      -     -    3s
     0     0 3124.58580    0  633          - 3124.58580      -     -    4s
     0     0 3138.54229    0  497          - 3138.54229      -     -    4s
     0     0 3138.54229    0  460          - 3138.54229      -     -    4s
     0     0 3154.62875    0  591          - 3154.62875      -     -    4s
     0     0 3157.34874    0  501          - 3157.34874      -     -    4s
     0     0 3169.61626    0  252          - 3169.61626      -     -    4s
     0     0 3169.61626    0  317          - 3169.61626      -     -    4s
     0     0 3169.61626    0  374          - 3169.61626      -     -    4s
     0     0 3169.61626    0  379          - 3169.61626      -     -    4s
     0     0 3169.61626    0  232          - 3169.61626      -     -    5s
     0     0 3169.61626    0  190          - 3169.61626      -     -    5s
     0     0 3169.61626    0  234          - 3169.61626      -     -    5s
     0     0 3169.61626    0  234          - 3169.61626      -     -    5s
     0     2 3169.61626    0  234          - 3169.61626      -     -    6s

Cutting planes:
  Gomory: 9
  Cover: 200
  Implied bound: 14
  Clique: 13
  MIR: 23
  StrongCG: 1
  GUB cover: 8
  Zero half: 21
  RLT: 12

Explored 122 nodes (25859 simplex iterations) in 7.20 seconds
Thread count was 32 (of 56 available processors)

Solution count 0

Model is infeasible
Best objective -, best bound -, gap -
